100
500
350
349
345
344
341
340
340
340
339
334
332
331
321
320
317
317
316
316
314
309
307
304
304
299
298
296
296
296
295
291
290
289
287
286
286
283
283
280
276
275
271
269
264
264
263
261
254
244
243
240
236
233
233
232
224
219
217
215
214
213
212
212
210
204
202
201
200
199
198
196
191
184
184
183
182
181
180
178
171
169
167
166
162
156
151
150
146
145
143
142
141
141
137
135
128
122
122
120
120
106
